291	52	4	163	
9	12	12	12

0	0	0	0	0	0	4	1	2	3	4
1	0	0	0	7	10	1	46
2	0	0	0	7	10	1	5
3	0	1	0	0	5	1	24
4	7	0	0	0	5	1	6
5	0	0	0	3	9	2	7	17
6	0	7	0	0	2	1	8
7	0	0	9	0	7	2	13	31
8	1	0	0	0	10	1	9
9	0	0	0	10	1	1	10
10	2	0	0	0	1	1	11
11	0	0	0	7	6	1	12
12	0	0	5	0	8	1	15
13	0	0	0	3	4	1	14
14	0	0	0	9	6	1	16
15	0	0	0	3	2	2	16	17
16	0	0	0	2	3	1	18
17	6	0	0	0	1	1	19
18	0	0	0	8	6	1	20
19	2	0	0	0	7	2	25	26
20	0	0	0	4	8	2	21	34
21	0	0	0	6	9	1	22
22	0	0	8	0	10	1	23
23	0	0	9	0	1	3	24	36	47
24	0	0	0	7	3	2	25	37
25	0	0	0	6	3	1	27
26	0	1	0	0	5	1	30
27	0	0	2	0	2	1	28
28	0	8	0	0	9	1	29
29	2	0	0	0	3	1	33
30	0	0	9	0	10	1	31
31	0	0	9	0	8	1	32
32	0	3	0	0	4	2	34	39
33	0	0	0	9	5	2	35	46
34	0	0	0	9	6	2	36	47
35	0	0	7	0	5	1	38
36	5	0	0	0	6	1	37
37	0	9	0	0	1	2	45	48
38	0	7	0	0	10	1	39
39	0	6	0	0	1	1	40
40	0	0	10	0	9	1	41
41	0	3	0	0	9	1	42
42	0	0	0	4	10	1	43
43	0	2	0	0	4	2	44	45
44	0	10	0	0	6	1	48
45	8	0	0	0	9	1	50
46	0	0	0	9	9	1	49
47	0	1	0	0	3	1	51
48	1	0	0	0	10	1	51
49	9	0	0	0	4	1	51
50	0	7	0	0	6	1	51
51	0	0	0	0	0	0
